NAME : Partition Crossover Example
COMMENT : Whitley et al Figure
TYPE : TSP
DIMENSION: 280
EDGE_WEIGHT_TYPE : EUC_2D
NODE_COORD_SECTION
  1 0 2
  2 2 1
  3 3 1
  4 5 2
  5 2 2
  6 3 2
  7 0 5
  8 5 5
  9 2 5
 10 3 5
 11 2 6
 12 3 6
EOF
